! COMMENT1
# COMMENT2

kpoints_mp_grid : 1 1 1
kpoint_mp_grid = 2 2 2 # COMMENT3

%BLOCK POSITIONS_ABS
O 1 1 1
Ce 2 2 2
%ENDBLOCK POSITIONS_ABS
