! COMMENT1
# COMMENT2

kpoints_mp_grid : 1 1 1
kpoint_mp_grid = 2 2 2 # COMMENT3

%BLOCK LATTICE_ABC
2 2 2
90 90 90
%ENDBLOCK LATTICE_ABC

%BLOCK POSITIONS_ABS
O 0 0 0
Ce 1 1 1
%ENDBLOCK POSITIONS_ABS
